language ESSENCE' 1.0

letting fixed be 
[
    [0,9,2,0,0,1,7,5,0],
    [5,0,0,2,0,0,0,0,8],
    [0,0,0,0,3,0,2,0,0],
    [0,7,5,0,0,4,9,6,0],
    [2,0,0,0,6,0,0,7,5],
    [0,6,9,7,0,0,0,3,0],
    [0,0,8,0,9,0,0,2,0],
    [7,0,0,0,0,3,0,8,9],
    [9,0,3,8,0,0,0,4,0]
]